\ Model MTZ_MODEL
\ LP format - for model browsing. Use MPS format to capture full model detail.
Minimize
  p[0,1] + p[0,2] + p[0,3] + p[0,4] + p[1,0] + p[1,2] + p[1,3] + p[1,4]
   + p[2,0] + p[2,1] + p[2,3] + p[2,4] + p[3,0] + p[3,1] + p[3,2] + p[3,4]
   + p[4,0] + p[4,1] + p[4,2] + p[4,3] + dc[0] + dc[1] + dc[2] + dc[3]
   + dc[4]
Subject To
 p2: p[0,1] - 4.26009349581035 z[0,1] >= 0
 p3: p[0,1] - 26.35931317653608 z[0,1] - dcc[0,1] >= -26.35931317653608
 R2: dcc[0,1] <= 26.35931317653608
 R3: x[0,1,0] - x[1,0,0] + dif[0,1,0] >= 0
 R4: - x[0,1,0] + x[1,0,0] + dif[0,1,0] >= 0
 R5: x[0,1,1] - x[1,0,1] + dif[0,1,1] >= 0
 R6: - x[0,1,1] + x[1,0,1] + dif[0,1,1] >= 0
 p2: p[0,2] - 26.17890199322969 z[0,2] >= 0
 p3: p[0,2] - 77.10257985751738 z[0,2] - dcc[0,2] >= -77.10257985751738
 R9: dcc[0,2] <= 77.10257985751738
 R10: x[0,1,0] - x[2,0,0] + dif[0,2,0] >= 0
 R11: - x[0,1,0] + x[2,0,0] + dif[0,2,0] >= 0
 R12: x[0,1,1] - x[2,0,1] + dif[0,2,1] >= 0
 R13: - x[0,1,1] + x[2,0,1] + dif[0,2,1] >= 0
 p2: p[0,3] - 20.94996646181325 z[0,3] >= 0
 p3: p[0,3] - 64.29084181753942 z[0,3] - dcc[0,3] >= -64.29084181753942
 R16: dcc[0,3] <= 64.29084181753942
 R17: x[0,1,0] - x[3,0,0] + dif[0,3,0] >= 0
 R18: - x[0,1,0] + x[3,0,0] + dif[0,3,0] >= 0
 R19: x[0,1,1] - x[3,0,1] + dif[0,3,1] >= 0
 R20: - x[0,1,1] + x[3,0,1] + dif[0,3,1] >= 0
 p2: p[0,4] - 7.586458441642549 z[0,4] >= 0
 p3: p[0,4] - 47.56856479693468 z[0,4] - dcc[0,4] >= -47.56856479693468
 R23: dcc[0,4] <= 47.56856479693468
 R24: x[0,1,0] - x[4,0,0] + dif[0,4,0] >= 0
 R25: - x[0,1,0] + x[4,0,0] + dif[0,4,0] >= 0
 R26: x[0,1,1] - x[4,0,1] + dif[0,4,1] >= 0
 R27: - x[0,1,1] + x[4,0,1] + dif[0,4,1] >= 0
 p2: p[1,0] - 4.26009349581035 z[1,0] >= 0
 p3: p[1,0] - 26.35931317653608 z[1,0] - dcc[1,0] >= -26.35931317653608
 R30: dcc[1,0] <= 26.35931317653608
 R31: - x[0,0,0] + x[1,1,0] + dif[1,0,0] >= 0
 R32: x[0,0,0] - x[1,1,0] + dif[1,0,0] >= 0
 R33: - x[0,0,1] + x[1,1,1] + dif[1,0,1] >= 0
 R34: x[0,0,1] - x[1,1,1] + dif[1,0,1] >= 0
 p2: p[1,2] - 26.08687747459418 z[1,2] >= 0
 p3: p[1,2] - 76.54268730886213 z[1,2] - dcc[1,2] >= -76.54268730886213
 R37: dcc[1,2] <= 76.54268730886213
 R38: x[1,1,0] - x[2,0,0] + dif[1,2,0] >= 0
 R39: - x[1,1,0] + x[2,0,0] + dif[1,2,0] >= 0
 R40: x[1,1,1] - x[2,0,1] + dif[1,2,1] >= 0
 R41: - x[1,1,1] + x[2,0,1] + dif[1,2,1] >= 0
 p2: p[1,3] - 14.80348792307222 z[1,3] >= 0
 p3: p[1,3] - 60.73015583073924 z[1,3] - dcc[1,3] >= -60.73015583073924
 R44: dcc[1,3] <= 60.73015583073924
 R45: x[1,1,0] - x[3,0,0] + dif[1,3,0] >= 0
 R46: - x[1,1,0] + x[3,0,0] + dif[1,3,0] >= 0
 R47: x[1,1,1] - x[3,0,1] + dif[1,3,1] >= 0
 R48: - x[1,1,1] + x[3,0,1] + dif[1,3,1] >= 0
 p2: p[1,4] - 1.045390860489511 z[1,4] >= 0
 p3: p[1,4] - 44.44206863873375 z[1,4] - dcc[1,4] >= -44.44206863873375
 R51: dcc[1,4] <= 44.44206863873375
 R52: x[1,1,0] - x[4,0,0] + dif[1,4,0] >= 0
 R53: - x[1,1,0] + x[4,0,0] + dif[1,4,0] >= 0
 R54: x[1,1,1] - x[4,0,1] + dif[1,4,1] >= 0
 R55: - x[1,1,1] + x[4,0,1] + dif[1,4,1] >= 0
 p2: p[2,0] - 26.17890199322969 z[2,0] >= 0
 p3: p[2,0] - 77.10257985751738 z[2,0] - dcc[2,0] >= -77.10257985751738
 R58: dcc[2,0] <= 77.10257985751738
 R59: - x[0,0,0] + x[2,1,0] + dif[2,0,0] >= 0
 R60: x[0,0,0] - x[2,1,0] + dif[2,0,0] >= 0
 R61: - x[0,0,1] + x[2,1,1] + dif[2,0,1] >= 0
 R62: x[0,0,1] - x[2,1,1] + dif[2,0,1] >= 0
 p2: p[2,1] - 26.08687747459418 z[2,1] >= 0
 p3: p[2,1] - 76.54268730886213 z[2,1] - dcc[2,1] >= -76.54268730886213
 R65: dcc[2,1] <= 76.54268730886213
 R66: - x[1,0,0] + x[2,1,0] + dif[2,1,0] >= 0
 R67: x[1,0,0] - x[2,1,0] + dif[2,1,0] >= 0
 R68: - x[1,0,1] + x[2,1,1] + dif[2,1,1] >= 0
 R69: x[1,0,1] - x[2,1,1] + dif[2,1,1] >= 0
 p2: p[2,3] - 8.524537430449476 z[2,3] >= 0
 p3: p[2,3] - 61.12373381064929 z[2,3] - dcc[2,3] >= -61.12373381064929
 R72: dcc[2,3] <= 61.12373381064929
 R73: x[2,1,0] - x[3,0,0] + dif[2,3,0] >= 0
 R74: - x[2,1,0] + x[3,0,0] + dif[2,3,0] >= 0
 R75: x[2,1,1] - x[3,0,1] + dif[2,3,1] >= 0
 R76: - x[2,1,1] + x[3,0,1] + dif[2,3,1] >= 0
 p2: p[2,4] - 12.58132933261862 z[2,4] >= 0
 p3: p[2,4] - 61.14245087186043 z[2,4] - dcc[2,4] >= -61.14245087186043
 R79: dcc[2,4] <= 61.14245087186043
 R80: x[2,1,0] - x[4,0,0] + dif[2,4,0] >= 0
 R81: - x[2,1,0] + x[4,0,0] + dif[2,4,0] >= 0
 R82: x[2,1,1] - x[4,0,1] + dif[2,4,1] >= 0
 R83: - x[2,1,1] + x[4,0,1] + dif[2,4,1] >= 0
 p2: p[3,0] - 20.94996646181325 z[3,0] >= 0
 p3: p[3,0] - 64.29084181753942 z[3,0] - dcc[3,0] >= -64.29084181753942
 R86: dcc[3,0] <= 64.29084181753942
 R87: - x[0,0,0] + x[3,1,0] + dif[3,0,0] >= 0
 R88: x[0,0,0] - x[3,1,0] + dif[3,0,0] >= 0
 R89: - x[0,0,1] + x[3,1,1] + dif[3,0,1] >= 0
 R90: x[0,0,1] - x[3,1,1] + dif[3,0,1] >= 0
 p2: p[3,1] - 14.80348792307222 z[3,1] >= 0
 p3: p[3,1] - 60.73015583073924 z[3,1] - dcc[3,1] >= -60.73015583073924
 R93: dcc[3,1] <= 60.73015583073924
 R94: - x[1,0,0] + x[3,1,0] + dif[3,1,0] >= 0
 R95: x[1,0,0] - x[3,1,0] + dif[3,1,0] >= 0
 R96: - x[1,0,1] + x[3,1,1] + dif[3,1,1] >= 0
 R97: x[1,0,1] - x[3,1,1] + dif[3,1,1] >= 0
 p2: p[3,2] - 8.524537430449476 z[3,2] >= 0
 p3: p[3,2] - 61.12373381064929 z[3,2] - dcc[3,2] >= -61.12373381064929
 R100: dcc[3,2] <= 61.12373381064929
 R101: - x[2,0,0] + x[3,1,0] + dif[3,2,0] >= 0
 R102: x[2,0,0] - x[3,1,0] + dif[3,2,0] >= 0
 R103: - x[2,0,1] + x[3,1,1] + dif[3,2,1] >= 0
 R104: x[2,0,1] - x[3,1,1] + dif[3,2,1] >= 0
 p2: p[3,4] - 2.052559292791105 z[3,4] >= 0
 p3: p[3,4] - 37.51493904206296 z[3,4] - dcc[3,4] >= -37.51493904206296
 R107: dcc[3,4] <= 37.51493904206296
 R108: x[3,1,0] - x[4,0,0] + dif[3,4,0] >= 0
 R109: - x[3,1,0] + x[4,0,0] + dif[3,4,0] >= 0
 R110: x[3,1,1] - x[4,0,1] + dif[3,4,1] >= 0
 R111: - x[3,1,1] + x[4,0,1] + dif[3,4,1] >= 0
 p2: p[4,0] - 7.586458441642549 z[4,0] >= 0
 p3: p[4,0] - 47.56856479693468 z[4,0] - dcc[4,0] >= -47.56856479693468
 R114: dcc[4,0] <= 47.56856479693468
 R115: - x[0,0,0] + x[4,1,0] + dif[4,0,0] >= 0
 R116: x[0,0,0] - x[4,1,0] + dif[4,0,0] >= 0
 R117: - x[0,0,1] + x[4,1,1] + dif[4,0,1] >= 0
 R118: x[0,0,1] - x[4,1,1] + dif[4,0,1] >= 0
 p2: p[4,1] - 1.045390860489511 z[4,1] >= 0
 p3: p[4,1] - 44.44206863873375 z[4,1] - dcc[4,1] >= -44.44206863873375
 R121: dcc[4,1] <= 44.44206863873375
 R122: - x[1,0,0] + x[4,1,0] + dif[4,1,0] >= 0
 R123: x[1,0,0] - x[4,1,0] + dif[4,1,0] >= 0
 R124: - x[1,0,1] + x[4,1,1] + dif[4,1,1] >= 0
 R125: x[1,0,1] - x[4,1,1] + dif[4,1,1] >= 0
 p2: p[4,2] - 12.58132933261862 z[4,2] >= 0
 p3: p[4,2] - 61.14245087186043 z[4,2] - dcc[4,2] >= -61.14245087186043
 R128: dcc[4,2] <= 61.14245087186043
 R129: - x[2,0,0] + x[4,1,0] + dif[4,2,0] >= 0
 R130: x[2,0,0] - x[4,1,0] + dif[4,2,0] >= 0
 R131: - x[2,0,1] + x[4,1,1] + dif[4,2,1] >= 0
 R132: x[2,0,1] - x[4,1,1] + dif[4,2,1] >= 0
 p2: p[4,3] - 2.052559292791105 z[4,3] >= 0
 p3: p[4,3] - 37.51493904206296 z[4,3] - dcc[4,3] >= -37.51493904206296
 R135: dcc[4,3] <= 37.51493904206296
 R136: - x[3,0,0] + x[4,1,0] + dif[4,3,0] >= 0
 R137: x[3,0,0] - x[4,1,0] + dif[4,3,0] >= 0
 R138: - x[3,0,1] + x[4,1,1] + dif[4,3,1] >= 0
 R139: x[3,0,1] - x[4,1,1] + dif[4,3,1] >= 0
 R140: z[0,1] + z[0,2] + z[0,3] + z[0,4] = 1
 R141: z[1,0] + z[1,2] + z[1,3] + z[1,4] = 1
 R142: z[2,0] + z[2,1] + z[2,3] + z[2,4] = 1
 R143: z[3,0] + z[3,1] + z[3,2] + z[3,4] = 1
 R144: z[4,0] + z[4,1] + z[4,2] + z[4,3] = 1
 R145: z[1,0] + z[2,0] + z[3,0] + z[4,0] = 1
 R146: z[0,1] + z[2,1] + z[3,1] + z[4,1] = 1
 R147: z[0,2] + z[1,2] + z[3,2] + z[4,2] = 1
 R148: z[0,3] + z[1,3] + z[2,3] + z[4,3] = 1
 R149: z[0,4] + z[1,4] + z[2,4] + z[3,4] = 1
 rest7: z[0,1] + z[1,0] <= 1
 rest7: z[0,2] + z[2,0] <= 1
 rest7: z[0,3] + z[3,0] <= 1
 rest7: z[0,4] + z[4,0] <= 1
 rest7: z[0,1] + z[1,0] <= 1
 rest7: z[1,2] + z[2,1] <= 1
 rest7: z[1,3] + z[3,1] <= 1
 rest7: z[1,4] + z[4,1] <= 1
 rest7: z[0,2] + z[2,0] <= 1
 rest7: z[1,2] + z[2,1] <= 1
 rest7: z[2,3] + z[3,2] <= 1
 rest7: z[2,4] + z[4,2] <= 1
 rest7: z[0,3] + z[3,0] <= 1
 rest7: z[1,3] + z[3,1] <= 1
 rest7: z[2,3] + z[3,2] <= 1
 rest7: z[3,4] + z[4,3] <= 1
 rest7: z[0,4] + z[4,0] <= 1
 rest7: z[1,4] + z[4,1] <= 1
 rest7: z[2,4] + z[4,2] <= 1
 rest7: z[3,4] + z[4,3] <= 1
 R170: 5 z[1,2] + sc[1] - sc[2] <= 4
 R171: 5 z[1,3] + sc[1] - sc[3] <= 4
 R172: 5 z[1,4] + sc[1] - sc[4] <= 4
 R173: 5 z[2,1] - sc[1] + sc[2] <= 4
 R174: 5 z[2,3] + sc[2] - sc[3] <= 4
 R175: 5 z[2,4] + sc[2] - sc[4] <= 4
 R176: 5 z[3,1] - sc[1] + sc[3] <= 4
 R177: 5 z[3,2] - sc[2] + sc[3] <= 4
 R178: 5 z[3,4] + sc[3] - sc[4] <= 4
 R179: 5 z[4,1] - sc[1] + sc[4] <= 4
 R180: 5 z[4,2] - sc[2] + sc[4] <= 4
 R181: 5 z[4,3] - sc[3] + sc[4] <= 4
 rest10: sc[0] = 0
 rest11: sc[1] >= 1
 rest11: sc[2] >= 1
 rest11: sc[3] >= 1
 rest11: sc[4] >= 1
 R187: dc[0] <= 22.22143026077304
 envConv: mu[0,0] + mu[0,1] + mu[0,2] + mu[0,3] + mu[0,4] + mu[0,5] = 1
 inP1: x[0,0,0] - 62.0676987567944 mu[0,0] - 48.55092373133893 mu[0,1]
   - 42.06223112917873 mu[0,2] - 51.56877358394939 mu[0,3]
   - 63.93283253865151 mu[0,4] - 62.06769875679446 mu[0,5] = 0
 inP1: x[0,1,0] - 62.0676987567944 mu[0,0] - 48.55092373133893 mu[0,1]
   - 42.06223112917873 mu[0,2] - 51.56877358394939 mu[0,3]
   - 63.93283253865151 mu[0,4] - 62.06769875679446 mu[0,5] = 0
 inP1: x[0,0,1] - 45.34260374035509 mu[0,0] - 47.77335246090125 mu[0,1]
   - 35.66927815735006 mu[0,2] - 25.75780011485508 mu[0,3]
   - 31.73624410939609 mu[0,4] - 45.34260374035502 mu[0,5] = 0
 inP1: x[0,1,1] - 45.34260374035509 mu[0,0] - 47.77335246090125 mu[0,1]
   - 35.66927815735006 mu[0,2] - 25.75780011485508 mu[0,3]
   - 31.73624410939609 mu[0,4] - 45.34260374035502 mu[0,5] = 0
 R193: - x[0,0,0] + x[0,1,0] + difc[0,0] >= 0
 R194: x[0,0,0] - x[0,1,0] + difc[0,0] >= 0
 R195: - x[0,0,1] + x[0,1,1] + difc[0,1] >= 0
 R196: x[0,0,1] - x[0,1,1] + difc[0,1] >= 0
 R197: dc[1] <= 23.10215045113429
 envConv: mu[1,0] + mu[1,1] + mu[1,2] + mu[1,3] + mu[1,4] + mu[1,5] = 1
 inP1: x[1,0,0] - 55.17240072059163 mu[1,0] - 42.17551190458792 mu[1,1]
   - 43.78093086416345 mu[1,2] - 57.77002316336838 mu[1,3]
   - 64.81033871646088 mu[1,4] - 55.17240072059155 mu[1,5] = 0
 inP1: x[1,1,0] - 55.17240072059163 mu[1,0] - 42.17551190458792 mu[1,1]
   - 43.78093086416345 mu[1,2] - 57.77002316336838 mu[1,3]
   - 64.81033871646088 mu[1,4] - 55.17240072059155 mu[1,5] = 0
 inP1: x[1,0,1] - 51.86962239134057 mu[1,0] - 45.95863983520208 mu[1,1]
   - 31.77126997187775 mu[1,2] - 28.91397574151549 mu[1,3]
   - 41.33544065461732 mu[1,4] - 51.86962239134059 mu[1,5] = 0
 inP1: x[1,1,1] - 51.86962239134057 mu[1,0] - 45.95863983520208 mu[1,1]
   - 31.77126997187775 mu[1,2] - 28.91397574151549 mu[1,3]
   - 41.33544065461732 mu[1,4] - 51.86962239134059 mu[1,5] = 0
 R203: - x[1,0,0] + x[1,1,0] + difc[1,0] >= 0
 R204: x[1,0,0] - x[1,1,0] + difc[1,0] >= 0
 R205: - x[1,0,1] + x[1,1,1] + difc[1,1] >= 0
 R206: x[1,0,1] - x[1,1,1] + difc[1,1] >= 0
 R207: dc[2] <= 29.37949295059672
 envConv: mu[2,0] + mu[2,1] + mu[2,2] + mu[2,3] + mu[2,4] + mu[2,5]
   + mu[2,6] + mu[2,7] + mu[2,8] + mu[2,9] = 1
 inP1: x[2,0,0] - 25.48116246871539 mu[2,0] - 17.1276347474142 mu[2,1]
   - 14.49454716359119 mu[2,2] - 18.81395066122585 mu[2,3]
   - 28.064748338952 mu[2,4] - 37.91838915219805 mu[2,5]
   - 43.76424505342632 mu[2,6] - 42.86697509700103 mu[2,7]
   - 35.64642186757841 mu[2,8] - 25.48116246871529 mu[2,9] = 0
 inP1: x[2,1,0] - 25.48116246871539 mu[2,0] - 17.1276347474142 mu[2,1]
   - 14.49454716359119 mu[2,2] - 18.81395066122585 mu[2,3]
   - 28.064748338952 mu[2,4] - 37.91838915219805 mu[2,5]
   - 43.76424505342632 mu[2,6] - 42.86697509700103 mu[2,7]
   - 35.64642186757841 mu[2,8] - 25.48116246871529 mu[2,9] = 0
 inP1: x[2,0,1] - 98.31291273267937 mu[2,0] - 92.45392315234726 mu[2,1]
   - 82.5961326256168 mu[2,2] - 73.35211089708278 mu[2,3]
   - 69.04723846938461 mu[2,4] - 71.69581299476981 mu[2,5]
   - 80.05853701718345 mu[2,6] - 90.22239902521387 mu[2,7]
   - 97.43161502655924 mu[2,8] - 98.31291273267934 mu[2,9] = 0
 inP1: x[2,1,1] - 98.31291273267937 mu[2,0] - 92.45392315234726 mu[2,1]
   - 82.5961326256168 mu[2,2] - 73.35211089708278 mu[2,3]
   - 69.04723846938461 mu[2,4] - 71.69581299476981 mu[2,5]
   - 80.05853701718345 mu[2,6] - 90.22239902521387 mu[2,7]
   - 97.43161502655924 mu[2,8] - 98.31291273267934 mu[2,9] = 0
 R213: - x[2,0,0] + x[2,1,0] + difc[2,0] >= 0
 R214: x[2,0,0] - x[2,1,0] + difc[2,0] >= 0
 R215: - x[2,0,1] + x[2,1,1] + difc[2,1] >= 0
 R216: x[2,0,1] - x[2,1,1] + difc[2,1] >= 0
 R217: dc[3] <= 23.23082836357179
 envConv: mu[3,0] + mu[3,1] + mu[3,2] + mu[3,3] + mu[3,4] + mu[3,5]
   + mu[3,6] + mu[3,7] + mu[3,8] + mu[3,9] = 1
 inP1: x[3,0,0] - 73.71707003499452 mu[3,0] - 75.4809804038556 mu[3,1]
   - 71.77167689656483 mu[3,2] - 64.32478384850062 mu[3,3]
   - 56.62478527984926 mu[3,4] - 52.27459609683443 mu[3,5]
   - 53.3097181651564 mu[3,6] - 59.24580636494684 mu[3,7]
   - 67.30529905525204 mu[3,8] - 73.71707003499438 mu[3,9] = 0
 inP1: x[3,1,0] - 73.71707003499452 mu[3,0] - 75.4809804038556 mu[3,1]
   - 71.77167689656483 mu[3,2] - 64.32478384850062 mu[3,3]
   - 56.62478527984926 mu[3,4] - 52.27459609683443 mu[3,5]
   - 53.3097181651564 mu[3,6] - 59.24580636494684 mu[3,7]
   - 67.30529905525204 mu[3,8] - 73.71707003499438 mu[3,9] = 0
 inP1: x[3,0,1] - 70.62872859000791 mu[3,0] - 78.50152695646081 mu[3,1]
   - 85.66626012658024 mu[3,2] - 88.77046982292678 mu[3,3]
   - 86.36166182913271 mu[3,4] - 79.56694417641307 mu[3,5]
   - 71.56564076934983 mu[3,6] - 66.10165039669104 mu[3,7]
   - 65.73163487929183 mu[3,8] - 70.6287285900077 mu[3,9] = 0
 inP1: x[3,1,1] - 70.62872859000791 mu[3,0] - 78.50152695646081 mu[3,1]
   - 85.66626012658024 mu[3,2] - 88.77046982292678 mu[3,3]
   - 86.36166182913271 mu[3,4] - 79.56694417641307 mu[3,5]
   - 71.56564076934983 mu[3,6] - 66.10165039669104 mu[3,7]
   - 65.73163487929183 mu[3,8] - 70.6287285900077 mu[3,9] = 0
 R223: - x[3,0,0] + x[3,1,0] + difc[3,0] >= 0
 R224: x[3,0,0] - x[3,1,0] + difc[3,0] >= 0
 R225: - x[3,0,1] + x[3,1,1] + difc[3,1] >= 0
 R226: x[3,0,1] - x[3,1,1] + difc[3,1] >= 0
 R227: dc[4] <= 20.64748863064534
 envConv: mu[4,0] + mu[4,1] + mu[4,2] + mu[4,3] + mu[4,4] + mu[4,5] = 1
 inP1: x[4,0,0] - 66.56667112712864 mu[4,0] - 66.62195770956346 mu[4,1]
   - 54.50286679293961 mu[4,2] - 46.95757011128133 mu[4,3]
   - 54.41341122343835 mu[4,4] - 66.5666711271287 mu[4,5] = 0
 inP1: x[4,1,0] - 66.56667112712864 mu[4,0] - 66.62195770956346 mu[4,1]
   - 54.50286679293961 mu[4,2] - 46.95757011128133 mu[4,3]
   - 54.41341122343835 mu[4,4] - 66.5666711271287 mu[4,5] = 0
 inP1: x[4,0,1] - 56.47919618377755 mu[4,0] - 69.23992617428708 mu[4,1]
   - 73.23578926647281 mu[4,2] - 62.94463848132557 mu[4,3]
   - 52.58849442056842 mu[4,4] - 56.4791961837776 mu[4,5] = 0
 inP1: x[4,1,1] - 56.47919618377755 mu[4,0] - 69.23992617428708 mu[4,1]
   - 73.23578926647281 mu[4,2] - 62.94463848132557 mu[4,3]
   - 52.58849442056842 mu[4,4] - 56.4791961837776 mu[4,5] = 0
 R233: - x[4,0,0] + x[4,1,0] + difc[4,0] >= 0
 R234: x[4,0,0] - x[4,1,0] + difc[4,0] >= 0
 R235: - x[4,0,1] + x[4,1,1] + difc[4,1] >= 0
 R236: x[4,0,1] - x[4,1,1] + difc[4,1] >= 0
 qc0: [ - dcc[0,1] ^2 + dif[0,1,0] ^2 + dif[0,1,1] ^2 ] <= 0
 qc1: [ - dcc[0,2] ^2 + dif[0,2,0] ^2 + dif[0,2,1] ^2 ] <= 0
 qc2: [ - dcc[0,3] ^2 + dif[0,3,0] ^2 + dif[0,3,1] ^2 ] <= 0
 qc3: [ - dcc[0,4] ^2 + dif[0,4,0] ^2 + dif[0,4,1] ^2 ] <= 0
 qc4: [ - dcc[1,0] ^2 + dif[1,0,0] ^2 + dif[1,0,1] ^2 ] <= 0
 qc5: [ - dcc[1,2] ^2 + dif[1,2,0] ^2 + dif[1,2,1] ^2 ] <= 0
 qc6: [ - dcc[1,3] ^2 + dif[1,3,0] ^2 + dif[1,3,1] ^2 ] <= 0
 qc7: [ - dcc[1,4] ^2 + dif[1,4,0] ^2 + dif[1,4,1] ^2 ] <= 0
 qc8: [ - dcc[2,0] ^2 + dif[2,0,0] ^2 + dif[2,0,1] ^2 ] <= 0
 qc9: [ - dcc[2,1] ^2 + dif[2,1,0] ^2 + dif[2,1,1] ^2 ] <= 0
 qc10: [ - dcc[2,3] ^2 + dif[2,3,0] ^2 + dif[2,3,1] ^2 ] <= 0
 qc11: [ - dcc[2,4] ^2 + dif[2,4,0] ^2 + dif[2,4,1] ^2 ] <= 0
 qc12: [ - dcc[3,0] ^2 + dif[3,0,0] ^2 + dif[3,0,1] ^2 ] <= 0
 qc13: [ - dcc[3,1] ^2 + dif[3,1,0] ^2 + dif[3,1,1] ^2 ] <= 0
 qc14: [ - dcc[3,2] ^2 + dif[3,2,0] ^2 + dif[3,2,1] ^2 ] <= 0
 qc15: [ - dcc[3,4] ^2 + dif[3,4,0] ^2 + dif[3,4,1] ^2 ] <= 0
 qc16: [ - dcc[4,0] ^2 + dif[4,0,0] ^2 + dif[4,0,1] ^2 ] <= 0
 qc17: [ - dcc[4,1] ^2 + dif[4,1,0] ^2 + dif[4,1,1] ^2 ] <= 0
 qc18: [ - dcc[4,2] ^2 + dif[4,2,0] ^2 + dif[4,2,1] ^2 ] <= 0
 qc19: [ - dcc[4,3] ^2 + dif[4,3,0] ^2 + dif[4,3,1] ^2 ] <= 0
 qc20: [ - dc[0] ^2 + difc[0,0] ^2 + difc[0,1] ^2 ] <= 0
 qc21: [ - dc[1] ^2 + difc[1,0] ^2 + difc[1,1] ^2 ] <= 0
 qc22: [ - dc[2] ^2 + difc[2,0] ^2 + difc[2,1] ^2 ] <= 0
 qc23: [ - dc[3] ^2 + difc[3,0] ^2 + difc[3,1] ^2 ] <= 0
 qc24: [ - dc[4] ^2 + difc[4,0] ^2 + difc[4,1] ^2 ] <= 0
Bounds
 mu[0,0] <= 1
 mu[0,1] <= 1
 mu[0,2] <= 1
 mu[0,3] <= 1
 mu[0,4] <= 1
 mu[0,5] <= 1
 mu[1,0] <= 1
 mu[1,1] <= 1
 mu[1,2] <= 1
 mu[1,3] <= 1
 mu[1,4] <= 1
 mu[1,5] <= 1
 mu[2,0] <= 1
 mu[2,1] <= 1
 mu[2,2] <= 1
 mu[2,3] <= 1
 mu[2,4] <= 1
 mu[2,5] <= 1
 mu[2,6] <= 1
 mu[2,7] <= 1
 mu[2,8] <= 1
 mu[2,9] <= 1
 mu[3,0] <= 1
 mu[3,1] <= 1
 mu[3,2] <= 1
 mu[3,3] <= 1
 mu[3,4] <= 1
 mu[3,5] <= 1
 mu[3,6] <= 1
 mu[3,7] <= 1
 mu[3,8] <= 1
 mu[3,9] <= 1
 mu[4,0] <= 1
 mu[4,1] <= 1
 mu[4,2] <= 1
 mu[4,3] <= 1
 mu[4,4] <= 1
 mu[4,5] <= 1
 sc[0] <= 4
 sc[1] <= 4
 sc[2] <= 4
 sc[3] <= 4
 sc[4] <= 4
Binaries
 z[0,1] z[0,2] z[0,3] z[0,4] z[1,0] z[1,2] z[1,3] z[1,4] z[2,0] z[2,1]
 z[2,3] z[2,4] z[3,0] z[3,1] z[3,2] z[3,4] z[4,0] z[4,1] z[4,2] z[4,3]
End
